; benchmark generated from python API
(set-info :status unknown)
(declare-fun C () Real)
(declare-fun S_5 () Real)
(declare-fun L_1 () Real)
(declare-fun A_1 () Real)
(declare-fun S_3 () Real)
(declare-fun S_4 () Real)
(declare-fun A_4 () Real)
(declare-fun S_2 () Real)
(declare-fun A_2 () Real)
(declare-fun L_0 () Real)
(declare-fun S_1 () Real)
(declare-fun A_0 () Real)
(declare-fun S_0 () Real)
(declare-fun A_3 () Real)
(declare-fun B () Real)
(declare-fun A_5 () Real)
(assert
 (let (($x39 (>= L_0 0.0)))
 (let (($x650 (>= C 5.0)))
 (let (($x642 (>= B 5.0)))
 (let ((?x531 (* (- 1.0) S_2)))
 (let ((?x1415 (* (- 3.0) C)))
 (let ((?x627 (* (- 1.0) B)))
 (let ((?x482 (* (- 1.0) A_3)))
 (let (($x2039 (<= (+ A_3 (* (- 1.0) A_2) B (* (- 1.0) C)) 0.0)))
 (let (($x1990 (not $x2039)))
 (let (($x96077 (or $x1990 (<= (+ (* (- 1.0) A_5) A_3 S_5 (* (- 1.0) S_4)) 0.0))))
 (let ((?x551 (* (- 1.0) C)))
 (let ((?x490 (* (- 1.0) A_1)))
 (let ((?x474 (* (- 1.0) A_5)))
 (let (($x32446 (<= (+ A_4 (* (- 1.0) A_2) (* (- 1.0) S_5) C B S_1) 0.0)))
 (let (($x1117 (<= (+ A_4 ?x482 ?x551) 0.0)))
 (let (($x1137 (not $x1117)))
 (let (($x1079 (<= (+ A_4 (* (- 1.0) L_1) (* (- 1.0) S_5)) 0.0)))
 (let (($x6699 (<= (+ (* (- 1.0) S_5) C S_3) 0.0)))
 (let (($x1115 (<= (+ A_3 (* (- 1.0) A_2) ?x551) 0.0)))
 (let (($x1136 (not $x1115)))
 (let (($x96976 (or $x1079 $x1136 $x2039 (not (<= (+ A_4 (* (- 1.0) A_2) (* (- 2.0) C) B) 0.0)) $x32446)))
 (let (($x350 (<= 0.0 (+ (* (- 1.0) A_4) A_3 C ?x627))))
 (let (($x48365 (not $x350)))
 (let ((?x1038 (* 2.0 C)))
 (let ((?x498 (* (- 1.0) S_5)))
 (let ((?x486 (* (- 1.0) A_2)))
 (let (($x34474 (<= (+ A_4 ?x486 ?x498 ?x1038 B S_0) 0.0)))
 (let (($x31013 (<= (+ A_4 ?x486 A_1 (* (- 1.0) L_1) ?x498 C B) 0.0)))
 (let (($x7606 (<= (+ ?x498 (* 4.0 C) S_0) 0.0)))
 (let (($x6051 (<= (+ A_1 (* (- 1.0) L_1) ?x498 (* 3.0 C)) 0.0)))
 (let (($x3844 (<= (+ A_2 ?x498 ?x1038 (* (- 1.0) L_1) ?x627) 0.0)))
 (let ((?x542 (* (- 1.0) S_1)))
 (let ((?x1107 (* (- 2.0) C)))
 (let ((?x478 (* (- 1.0) A_4)))
 (let (($x97894 (or $x1079 $x6699 (<= (+ A_4 ?x482 ?x498 B S_3) 0.0) (<= (+ A_4 ?x486 ?x498 ?x551 B S_3) 0.0))))
 (let (($x14607 (<= (+ ?x482 A_2 S_5 ?x627 (* (- 5.0) C) (* (- 1.0) S_0)) 0.0)))
 (let (($x14471 (<= (+ ?x482 A_2 (* (- 1.0) A_0) S_5 ?x627 (* (- 4.0) C) L_0) 0.0)))
 (let (($x98732 (or $x2039 (<= (+ ?x474 A_2 S_5 ?x627 C (* (- 1.0) S_4)) 0.0))))
 (let (($x7474 (<= (+ ?x498 (* 3.0 C) S_1) 0.0)))
 (let (($x2221 (<= (+ A_4 ?x486 ?x1107 B) 0.0)))
 (let (($x9353 (<= (+ ?x498 ?x1038 S_2) 0.0)))
 (let (($x2215 (<= (+ A_4 ?x486 ?x498 B S_2) 0.0)))
 (let (($x34691 (<= (+ ?x478 A_2 S_5 (* (- 4.0) C) ?x627 (* (- 1.0) S_0)) 0.0)))
 (let (($x27143 (<= (+ A_4 ?x474 ?x482 A_2 S_5 ?x1415 (* (- 2.0) B) ?x542) 0.0)))
 (let ((?x520 (* (- 1.0) S_3)))
 (let ((?x12791 (* (- 2.0) B)))
 (let ((?x1108 (* (- 1.0) S_0)))
 (let ((?x1455 (* (- 4.0) C)))
 (let (($x27982 (<= (+ A_4 ?x474 ?x482 A_2 (* (- 1.0) A_0) S_5 ?x1415 ?x12791 L_0) 0.0)))
 (let (($x45606 (<= 0.0 (+ ?x482 A_2 C B))))
 (let (($x47534 (not $x45606)))
 (let (($x17396 (<= (+ A_4 ?x482 ?x498 B (* 3.0 C) S_0) 0.0)))
 (let (($x1611 (<= (+ A_2 (* (- 1.0) L_1) ?x498 ?x1038) 0.0)))
 (let (($x1530 (<= (+ A_2 ?x490 ?x551) 0.0)))
 (let (($x1399 (not $x1530)))
 (let (($x12044 (<= (+ A_4 ?x482 A_1 (* (- 1.0) L_1) ?x498 ?x1038 B) 0.0)))
 (let (($x4975 (<= (+ A_4 ?x482 A_2 (* (- 1.0) L_1) ?x498 C B) 0.0)))
 (let (($x17494 (<= (+ A_4 ?x482 ?x498 B ?x1038 S_1) 0.0)))
 (let (($x5092 (<= (+ A_3 (* (- 1.0) L_1) ?x498 C) 0.0)))
 (let (($x56432 (or $x1117 $x1136 $x5092 $x6051 $x7606 (<= (+ A_3 ?x486 A_1 (* (- 1.0) L_1) ?x498 ?x1038 B) 0.0) (<= (+ A_3 ?x486 ?x498 B (* 3.0 C) S_0) 0.0))))
 (let (($x96360 (or $x1117 $x1136 $x5092 $x7474 (<= (+ A_3 ?x486 ?x498 B ?x1038 S_1) 0.0))))
 (let (($x1085 (<= (+ A_3 (* (- 1.0) L_1) (* (- 1.0) S_4)) 0.0)))
 (let (($x50940 (or $x1085 (<= (+ C (* (- 1.0) S_4) S_2) 0.0) (<= (+ A_3 ?x486 B (* (- 1.0) S_4) S_2) 0.0))))
 (let (($x49074 (<= 0.0 (+ ?x490 C S_0 L_1))))
 (let (($x7635 (<= (+ (* 3.0 C) (* (- 1.0) S_4) S_0) 0.0)))
 (let (($x96762 (or $x1085 $x1136 $x7635 (<= (+ A_3 ?x486 B ?x1038 (* (- 1.0) S_4) S_0) 0.0) $x49074)))
 (let (($x8076 (<= (+ ?x1038 (* (- 1.0) S_4) S_1) 0.0)))
 (let (($x54977 (or $x1085 $x1136 $x8076 (<= (+ A_3 ?x486 B C (* (- 1.0) S_4) S_1) 0.0))))
 (let (($x49105 (<= 0.0 (+ ?x486 A_1 C B))))
 (let (($x49075 (not $x49074)))
 (let (($x12169 (<= (+ A_3 ?x486 A_1 (* (- 1.0) L_1) C B (* (- 1.0) S_4)) 0.0)))
 (let (($x7764 (<= (+ A_1 (* (- 1.0) L_1) ?x1038 (* (- 1.0) S_4)) 0.0)))
 (let (($x1699 (<= (+ A_2 (* (- 1.0) L_1) C (* (- 1.0) S_4)) 0.0)))
 (let (($x11353 (or (<= (+ C ?x531 S_0) 0.0) (<= (+ A_1 (* (- 1.0) L_1) ?x531) 0.0))))
 (let (($x1091 (<= (+ A_2 (* (- 1.0) L_1) ?x520) 0.0)))
 (let (($x49381 (or $x1091 (<= (+ A_1 (* (- 1.0) L_1) C ?x520) 0.0) (<= (+ ?x1038 ?x520 S_0) 0.0))))
 (let (($x56 (= L_1 L_0)))
 (let (($x1469 (<= (+ A_1 ?x498 (* 3.0 C) (* (- 1.0) L_1) ?x627) 0.0)))
 (let (($x2767 (<= (+ A_4 ?x482 A_1 ?x498 ?x1038 (* (- 1.0) L_1)) 0.0)))
 (let (($x1113 (<= (+ A_2 ?x490 ?x551 B) 0.0)))
 (let (($x1386 (<= (+ A_1 ?x1038 (* (- 1.0) S_4) (* (- 1.0) L_1) ?x627) 0.0)))
 (let (($x448 (<= 0.0 (+ (* (- 1.0) L_1) L_0))))
 (let (($x95709 (or $x56 (<= (+ A_4 ?x474 ?x482 A_2 ?x490 S_5 ?x1107 ?x627 L_1) 0.0))))
 (let (($x95407 (or $x1136 $x1469 $x1530 (<= (+ A_3 ?x486 A_1 ?x498 ?x1038 (* (- 1.0) L_1)) 0.0) (<= (+ A_4 ?x486 A_1 ?x498 C (* (- 1.0) L_1)) 0.0))))
 (let (($x1987 (<= (+ A_3 ?x486 A_1 C (* (- 1.0) S_4) (* (- 1.0) L_1)) 0.0)))
 (let (($x1131 (<= (+ A_1 (* (- 1.0) A_0) (* (- 1.0) L_1) ?x551 ?x627 L_0) 0.0)))
 (let (($x128 (>= S_1 S_0)))
 (let (($x131 (>= S_2 S_1)))
 (let (($x134 (>= S_3 S_2)))
 (let (($x137 (>= S_4 S_3)))
 (let (($x140 (>= S_5 S_4)))
 (let (($x142 (>= A_1 A_0)))
 (let (($x143 (>= A_2 A_1)))
 (let (($x144 (>= A_3 A_2)))
 (let (($x145 (>= A_4 A_3)))
 (let (($x146 (>= A_5 A_4)))
 (and $x146 $x145 $x144 $x143 $x142 $x140 $x137 $x134 $x131 $x128 (or (not $x448) $x56) $x1131 (<= (+ A_1 (* (- 1.0) L_1) ?x1107 ?x1108 ?x627) 0.0) (<= (+ A_1 (* (- 1.0) L_1) ?x551 ?x542 ?x627) 0.0) (<= (+ A_1 (* (- 1.0) L_1) ?x531 ?x627) 0.0) (or $x56 (<= (+ ?x490 L_1 C S_0 B) 0.0)) (<= (+ ?x478 L_1 S_5 ?x551) 0.0) (or $x56 (<= (+ ?x490 ?x551 S_2 L_1 B) 0.0)) (or $x56 (<= (+ ?x490 L_1 S_1 B) 0.0)) (or $x1386 $x1530 $x1987) (or $x56 (<= (+ ?x490 ?x1107 S_3 L_1 B) 0.0)) (or $x56 (<= (+ ?x478 A_2 ?x490 ?x551 S_4 L_1) 0.0)) (or $x1115 $x1469 $x1530 $x2767) $x95407 (or $x56 (<= (+ ?x482 A_2 ?x490 ?x551 S_3 L_1) 0.0)) (or $x56 (<= (+ ?x482 A_2 ?x490 ?x1107 S_4 L_1) 0.0)) (or $x56 (<= (+ A_4 ?x474 ?x490 S_5 ?x1415 L_1) 0.0)) (or $x56 (<= (+ ?x482 A_2 ?x490 S_5 ?x1415 L_1) 0.0)) (or $x56 (<= (+ ?x474 A_2 ?x490 S_5 ?x551 L_1) 0.0)) $x95709 (or $x56 (<= (+ ?x474 A_3 ?x490 S_5 ?x1107 L_1) 0.0)) (or $x56 (<= (+ ?x490 ?x1415 S_4 L_1 B) 0.0)) (or $x448 (<= (+ ?x478 A_2 ?x490 S_5 ?x1107 L_1) 0.0)) (or $x56 (<= (+ ?x490 S_5 ?x1455 L_1 B) 0.0)) (or $x1091 (<= (+ A_1 C ?x520 (* (- 1.0) L_1) ?x627) 0.0)) (<= (+ ?x486 L_1 ?x551 S_3) 0.0) (or $x1113 $x1117 $x1399 $x1469 $x5092) (or $x1085 $x1113 $x1386 $x1399) (<= (+ ?x482 L_1 ?x551 S_4) 0.0) (or $x1079 $x1113 $x1115 $x1469 $x2767) (or $x1079 $x1136 $x1137 $x1399 $x1469) (or $x56 (<= (+ ?x478 A_3 ?x490 ?x1107 S_4 L_1) 0.0)) (or $x56 (<= (+ ?x478 A_3 ?x490 S_5 ?x1415 L_1) 0.0)) (<= (+ ?x474 A_3 ?x486 L_1 S_5 ?x627 ?x551) 0.0) (<= (+ ?x478 A_3 ?x486 L_1 ?x551 ?x627 S_4) 0.0) (<= (+ A_4 ?x474 ?x486 L_1 S_5 ?x1107 ?x627) 0.0) (<= (+ ?x490 L_1 S_1) 0.0) (or $x1091 (<= (+ C ?x520 S_1) 0.0)) (or $x350 (not $x1113) $x1611 $x45606) (or (not $x1113) $x4975 $x45606 $x48365) (or $x1085 (not $x1113) $x1699) (or $x1117 (not $x1113) $x1611 $x5092) (or $x1079 (not $x1113) $x1137 $x1611 $x47534) (<= (+ (* (- 5.0) C) S_4 ?x1108) 0.0) (<= (+ ?x1455 S_4 ?x542) 0.0) (<= (+ (* (- 1.0) A_0) ?x1455 S_4 L_0) 0.0) (<= (+ (* (- 1.0) A_0) ?x1415 S_3 L_0) 0.0) (<= (+ ?x1415 S_3 ?x542) 0.0) $x49381 $x11353 (<= (+ ?x1415 S_2 ?x1108) 0.0) (<= (+ ?x1455 S_3 ?x1108) 0.0) (<= (+ ?x1107 S_1 ?x1108) 0.0) (<= (+ ?x1107 S_2 ?x542) 0.0) (or $x1115 $x1699 $x8076) (or $x1115 $x1699 $x7635 $x7764) (<= (+ ?x1107 S_3 ?x531) 0.0) (<= (+ S_5 (* (- 6.0) C) ?x1108) 0.0) (or $x1085 $x1530 $x7764 $x49075 (not $x49105)) (or $x7764 $x12169 $x49075 $x49105) (or $x1085 $x1136 $x1399 $x7635) $x54977 (<= (+ (* (- 1.0) A_0) S_5 (* (- 5.0) C) L_0) 0.0) (<= (+ ?x486 L_1 S_5 ?x1415) 0.0) (<= (+ ?x474 L_1 S_5) 0.0) (<= (+ ?x478 A_3 ?x486 L_1 S_5 ?x1107 ?x627) 0.0) (<= (+ A_4 ?x474 (* (- 1.0) A_0) S_5 ?x627 ?x1455 L_0) 0.0) (<= (+ A_4 ?x474 S_5 ?x627 (* (- 5.0) C) ?x1108) 0.0) (<= (+ ?x482 L_1 S_5 ?x1107) 0.0) (<= (+ A_4 ?x474 S_5 ?x627 ?x1455 ?x542) 0.0) $x96762 (<= (+ ?x482 A_2 ?x1107 ?x627 S_3 ?x542) 0.0) (or $x1117 $x5092 $x9353 (<= (+ A_3 ?x486 ?x498 B C S_2) 0.0)) (<= (+ ?x482 A_2 ?x627 ?x1107 S_4 ?x531) 0.0) $x50940 (<= (+ ?x482 A_2 ?x490 L_1 S_5 ?x1415 ?x627) 0.0) (<= (+ ?x482 A_2 ?x490 L_1 ?x1107 ?x627 S_4) 0.0) (<= (+ ?x482 A_2 ?x1415 ?x627 S_3 ?x1108) 0.0) $x96360 (<= (+ ?x482 A_2 ?x627 ?x551 S_4 ?x520) 0.0) (<= (+ ?x482 A_2 (* (- 1.0) A_0) ?x627 ?x1415 S_4 L_0) 0.0) (<= (+ ?x482 A_2 ?x490 L_1 ?x551 ?x627 S_3) 0.0) $x56432 (<= (+ ?x482 A_2 ?x627 ?x1415 S_4 ?x542) 0.0) (<= (+ ?x482 A_2 ?x627 ?x1455 S_4 ?x1108) 0.0) (<= (+ ?x482 A_2 ?x551 ?x627 S_3 ?x531) 0.0) (<= (+ ?x482 A_2 (* (- 1.0) A_0) ?x1107 ?x627 S_3 L_0) 0.0) (or $x350 $x1079 $x1115 $x1611 $x7474) (or $x350 $x1079 $x1115 $x1611 $x6051 $x7606) (<= (+ ?x478 A_3 (* (- 1.0) A_0) ?x627 ?x1415 S_4 L_0) 0.0) (<= (+ ?x474 A_3 S_5 ?x627 ?x551 ?x520) 0.0) (<= (+ ?x478 A_3 ?x627 ?x1107 S_4 ?x531) 0.0) (<= (+ ?x474 A_3 S_5 ?x627 ?x1415 ?x542) 0.0) (<= (+ ?x474 A_3 ?x490 L_1 S_5 ?x627 ?x1107) 0.0) (<= (+ ?x474 A_3 (* (- 1.0) A_0) S_5 ?x627 ?x1415 L_0) 0.0) (<= (+ ?x474 A_3 S_5 ?x627 ?x1107 ?x531) 0.0) (<= (+ ?x474 A_3 S_5 ?x627 ?x1455 ?x1108) 0.0) (<= (+ ?x478 A_3 S_5 ?x627 ?x1107 ?x520) 0.0) (<= (+ ?x478 A_3 ?x490 L_1 S_5 ?x1415 ?x627) 0.0) (<= (+ ?x478 A_3 S_5 ?x627 ?x551 (* (- 1.0) S_4)) 0.0) (<= (+ ?x478 A_3 ?x627 ?x551 S_4 ?x520) 0.0) (<= (+ ?x478 A_3 ?x490 L_1 ?x1107 ?x627 S_4) 0.0) (or $x1079 $x1115 $x1530 $x7474 $x17494) (<= (+ ?x478 A_3 ?x627 ?x1455 S_4 ?x1108) 0.0) (<= (+ ?x474 A_3 S_5 ?x627 (* (- 1.0) S_4)) 0.0) (<= (+ ?x478 A_3 S_5 ?x627 ?x1415 ?x531) 0.0) (<= (+ ?x478 A_3 S_5 ?x627 (* (- 5.0) C) ?x1108) 0.0) (<= (+ ?x478 A_3 (* (- 1.0) A_0) S_5 ?x627 ?x1455 L_0) 0.0) (or $x1079 $x1137 $x1399 $x1611 $x7474 $x17494 $x47534) (or $x4975 $x17494 $x45606 $x48365) (<= (+ ?x478 A_3 S_5 ?x627 ?x1455 ?x542) 0.0) (<= (+ ?x478 A_3 ?x627 ?x1415 S_4 ?x542) 0.0) (or $x1079 $x1115 $x1530 $x6051 $x7606 $x12044 $x17396) (or $x1079 $x1115 $x9353 (<= (+ A_4 ?x482 ?x498 B C S_2) 0.0)) (or $x4975 $x12044 $x17396 $x45606 $x48365) (or $x1079 $x1137 $x1399 $x1611 $x7606 $x17396 $x47534) (<= (+ A_4 ?x474 S_5 ?x627 ?x551 (* (- 1.0) S_4)) 0.0) (or $x1137 $x1990 $x31013 $x34474 $x49105) (or $x1079 $x1137 $x1990 $x2215) (or $x1079 $x1137 $x1990 $x34474 (<= 0.0 (+ A_2 ?x490 ?x551 ?x627))) (or $x1137 $x1990 $x31013 $x34474 (not (<= 0.0 (+ A_2 ?x490 ?x551 ?x627)))) (<= (+ ?x478 A_2 ?x490 L_1 ?x551 ?x627 S_4) 0.0) (<= (+ S_5 (* (- 5.0) C) ?x542) 0.0) (<= (+ A_4 ?x474 ?x482 A_2 ?x490 L_1 S_5 ?x1107 ?x12791) 0.0) (<= (+ A_4 ?x474 ?x490 L_1 S_5 ?x1415 ?x627) 0.0) (<= (+ A_4 ?x474 ?x482 L_1 S_5 ?x627 ?x551) 0.0) $x27982 (<= (+ A_4 ?x474 ?x482 A_2 S_5 ?x1455 ?x12791 ?x1108) 0.0) (<= (+ A_4 ?x474 ?x482 A_2 S_5 ?x1107 ?x12791 ?x531) 0.0) (<= (+ A_4 ?x474 ?x482 A_2 S_5 ?x551 ?x12791 ?x520) 0.0) $x27143 (<= (+ ?x478 A_2 S_5 ?x551 ?x627 ?x520) 0.0) (<= (+ ?x478 A_2 (* (- 1.0) A_0) S_5 ?x1415 ?x627 L_0) 0.0) (<= (+ ?x478 A_2 S_5 ?x1107 ?x627 ?x531) 0.0) (or $x2039 (<= (+ ?x478 A_2 S_5 ?x627 (* (- 1.0) S_4)) 0.0)) $x34691 (<= (+ ?x478 A_2 S_5 ?x1415 ?x627 ?x542) 0.0) (<= (+ ?x478 A_2 ?x490 L_1 S_5 ?x1107 ?x627) 0.0) (<= (+ ?x490 L_1 ?x1415 S_4) 0.0) (<= (+ A_4 ?x474 S_5 ?x627 ?x1415 ?x531) 0.0) (<= (+ A_4 ?x474 S_5 ?x627 ?x1107 ?x520) 0.0) (or $x1079 $x1136 $x1137 $x9353 (not (<= 0.0 (+ ?x486 B S_2 L_1)))) (or $x1079 $x1136 $x1137 $x2221 $x6051 $x7606) (or $x1079 $x1136 $x2039 $x2215 $x3844 $x9353) (or $x1990 (<= (+ ?x478 A_3 S_5 ?x551 (* (- 1.0) S_4)) 0.0)) (<= (+ ?x478 A_2 ?x551 ?x627 S_4 ?x531) 0.0) (or $x1079 $x1136 $x1137 $x2221 $x7474) (<= (+ ?x474 A_2 S_5 ?x627 ?x551 ?x531) 0.0) $x98732 (<= (+ ?x474 A_2 S_5 ?x627 ?x1107 ?x542) 0.0) (<= (+ ?x474 A_2 S_5 ?x627 ?x1415 ?x1108) 0.0) (<= (+ ?x474 A_2 (* (- 1.0) A_0) S_5 ?x627 ?x1107 L_0) 0.0) (<= (+ ?x474 A_2 S_5 ?x627 ?x520) 0.0) (<= (+ S_5 ?x1455 ?x531) 0.0) (<= (+ ?x482 A_2 S_5 ?x627 ?x1455 ?x542) 0.0) $x14471 (<= (+ ?x482 A_2 S_5 ?x627 ?x1107 ?x520) 0.0) $x14607 (<= (+ ?x478 A_2 ?x627 S_4 ?x520) 0.0) (<= (+ ?x478 A_2 ?x1415 ?x627 S_4 ?x1108) 0.0) $x97894 (<= (+ ?x478 A_2 (* (- 1.0) A_0) ?x1107 ?x627 S_4 L_0) 0.0) (<= (+ ?x478 A_2 ?x1107 ?x627 S_4 ?x542) 0.0) (or $x1079 $x1136 $x2039 $x3844 $x6051 $x7606 $x31013 $x34474) (or $x1079 $x1136 $x32446 $x48365) $x96976 (or (<= (+ A_4 ?x482 ?x498 S_3) 0.0) $x6699) (or $x1079 $x1137 $x1990 $x32446) (<= (+ ?x474 A_2 ?x490 L_1 S_5 ?x551 ?x627) 0.0) $x96077 (<= (+ ?x482 A_2 S_5 ?x627 ?x1415 ?x531) 0.0) $x642 $x650 $x39 (<= (+ ?x482 L_1 S_3) 0.0) (<= (+ ?x486 L_1 S_2) 0.0) (<= (+ (* (- 1.0) A_0) ?x1107 S_2 L_0) 0.0) (<= (+ (* (- 1.0) A_0) S_0 L_0) 0.0) (<= (+ (* (- 1.0) A_0) ?x551 S_1 L_0) 0.0) (<= (+ ?x1107 S_4 ?x520) 0.0) (<= (+ ?x1415 S_4 ?x531) 0.0) (<= (+ ?x486 L_1 ?x1107 S_4) 0.0) (<= (+ ?x490 L_1 ?x551 S_2) 0.0) (<= (+ ?x490 L_1 ?x1107 S_3) 0.0) (<= (+ S_5 ?x1107 (* (- 1.0) S_4)) 0.0) (<= (+ ?x478 L_1 S_4) 0.0) (<= (+ S_5 ?x1415 ?x520) 0.0) (<= (+ ?x490 L_1 S_5 ?x1455) 0.0)))))))))))))))))))))))))))))))))))))))))))))))))))))))))))))))))))))))))))))))))))))))))))))))))))
(check-sat)
